(declare-fun Constructed_Argument_t () String)
(declare-fun CreateAsClass () Bool)
(declare-fun Constructed_Argument () Real)
(declare-fun ExpandObjSwitcher () Real)
(assert (= Constructed_Argument_t "number"))
(assert CreateAsClass)
(assert (= Constructed_Argument 0.0))
(assert (not (= ExpandObjSwitcher 0.0)))
(check-sat)
